30 62
28
5 7 13 0
5 14 0 44
8 14 22 34
8 4 0 58
13 21 8 24
11 7 8 14
11 14 19 48
5 14 8 0
4 5 26 29
3 18 5 1
3 21 5 37
11 17 8 45
11 4 19 6
4 7 15 7
4 5 1 21
7 6 23 0
5 18 21 16
5 3 21 10
7 3 8 21
5 3 21 13
4 18 26 11
3 4 20 2
2 12 19 12
2 6 18 0
5 18 0 26
5 21 0 0
3 17 5 20
4 3 15 21
